c FILE /home/rafael/Documents/HappySet/MIHS/inputs/happygen/output/graph_d_regular_k5_p0.1_v50_20241127_082625.txt
c SOURCE This is a d-regular graph formed for the happy graph colouring problem.
c DESCRIPTION It was generated using the problem generator of Rhyd Lewis
c
c GRAPH STATS
c Seed                             = 1056079620
c Number of Nodes                  = 50
c Number of colours k              = 5
c Number of pre-assignments        = 5
c Degree of all vertices           = 6
c Density                          = 0.122449
c 
c The degrees of nodes 1 to 50, respectively, are as follows 
c [6, 6, 6, 6, 6, 6, 6, 6, 6, 6, 6, 6, 6, 6, 6, 6, 6, 6, 6, 6, 6, 6, 6, 6, 6, 6, 
c  6, 6, 6, 6, 6, 6, 6, 6, 6, 6, 6, 6, 6, 6, 6, 6, 6, 6, 6, 6, 6, 6, 6, 6] 
c  
p edge 50 150 5
e 1 5
e 1 9
e 1 16
e 1 18
e 1 36
e 1 43
e 2 15
e 2 17
e 2 25
e 2 32
e 2 36
e 2 50
e 3 7
e 3 11
e 3 12
e 3 18
e 3 27
e 3 30
e 4 11
e 4 20
e 4 35
e 4 41
e 4 45
e 4 46
e 5 8
e 5 15
e 5 23
e 5 33
e 5 39
e 6 9
e 6 13
e 6 22
e 6 39
e 6 44
e 6 50
e 7 10
e 7 18
e 7 27
e 7 28
e 7 37
e 8 13
e 8 24
e 8 32
e 8 35
e 8 49
e 9 15
e 9 42
e 9 46
e 9 48
e 10 24
e 10 26
e 10 27
e 10 43
e 10 48
e 11 13
e 11 20
e 11 21
e 11 40
e 12 13
e 12 27
e 12 34
e 12 35
e 12 45
e 13 42
e 13 43
e 14 25
e 14 26
e 14 28
e 14 37
e 14 41
e 14 46
e 15 22
e 15 25
e 15 42
e 16 25
e 16 29
e 16 34
e 16 45
e 16 49
e 17 22
e 17 24
e 17 38
e 17 43
e 17 50
e 18 20
e 18 24
e 18 28
e 19 33
e 19 34
e 19 41
e 19 44
e 19 45
e 19 47
e 20 29
e 20 32
e 20 43
e 21 22
e 21 26
e 21 28
e 21 29
e 21 50
e 22 28
e 22 45
e 23 24
e 23 29
e 23 31
e 23 36
e 23 42
e 24 40
e 25 36
e 25 46
e 26 30
e 26 36
e 26 38
e 27 41
e 27 48
e 28 39
e 29 37
e 29 47
e 30 31
e 30 33
e 30 35
e 30 40
e 31 33
e 31 42
e 31 44
e 31 48
e 32 35
e 32 38
e 32 47
e 33 47
e 33 49
e 34 41
e 34 44
e 34 50
e 35 40
e 36 37
e 37 39
e 37 44
e 38 40
e 38 41
e 38 48
e 39 47
e 39 50
e 40 42
e 43 45
e 44 49
e 46 48
e 46 49
e 47 49
n 3 4
n 8 2
n 21 5
n 44 3
n 47 1
